************************************************************************
file with basedata            : md372_.bas
initial value random generator: 2127455891
************************************************************************
projects                      :  1
jobs (incl. supersource/sink ):  22
horizon                       :  157
RESOURCES
  - renewable                 :  2   R
  - nonrenewable              :  2   N
  - doubly constrained        :  0   D
************************************************************************
PROJECT INFORMATION:
pronr.  #jobs rel.date duedate tardcost  MPM-Time
    1     20      0       20       19       20
************************************************************************
PRECEDENCE RELATIONS:
jobnr.    #modes  #successors   successors
   1        1          3           2   3   4
   2        3          3           8  13  15
   3        3          3           5   9  17
   4        3          3           6  14  18
   5        3          1          11
   6        3          3           7  10  11
   7        3          2          15  20
   8        3          3          10  18  21
   9        3          3          11  12  14
  10        3          1          20
  11        3          2          13  16
  12        3          3          13  16  18
  13        3          1          21
  14        3          1          19
  15        3          1          16
  16        3          2          19  21
  17        3          1          20
  18        3          1          19
  19        3          1          22
  20        3          1          22
  21        3          1          22
  22        1          0        
************************************************************************
REQUESTS/DURATIONS:
jobnr. mode duration  R 1  R 2  N 1  N 2
------------------------------------------------------------------------
  1      1     0       0    0    0    0
  2      1     1       0    9    2    5
         2     4       0    5    2    5
         3     8       0    3    1    5
  3      1     3      10    0    9    9
         2     7       0   10    8    9
         3     9       0   10    8    6
  4      1     7       4    0    6    5
         2     8       0    8    6    4
         3     9       0    6    6    3
  5      1     7       0    5    8    8
         2     8       2    0    8    5
         3    10       0    2    7    2
  6      1     1       0   10    8    5
         2    10       2    0    5    5
         3    10       0    7    5    5
  7      1     4       0   10   10    3
         2     6       0    6    8    2
         3     9       5    0    5    2
  8      1     4       0    3    5    9
         2     5       7    0    5    8
         3     7       0    2    4    7
  9      1     1       0    9    7   10
         2     2       6    0    5    7
         3     4       0    4    4    6
 10      1     3       9    0    8    4
         2     5       0    1    7    2
         3     7       6    0    7    2
 11      1     2       8    0    7    9
         2     9       0    6    7    5
         3    10       0    6    7    4
 12      1     4       9    0    7   10
         2     5       0    8    5    8
         3     9       0    4    2    7
 13      1     7       0    5    4    6
         2     8       9    0    4    6
         3     9       8    0    3    3
 14      1     5       0    4    7    9
         2     6       0    4    7    7
         3    10       0    4    7    6
 15      1     5       6    0    5   10
         2     6       0    2    3    9
         3     7       6    0    3    9
 16      1     1       7    0   10    4
         2     5       6    0    9    3
         3     6       0    6    6    3
 17      1     6       5    0    3   10
         2     8       3    0    3    7
         3     9       1    0    2    7
 18      1     3       0    3    8    5
         2     4       0    2    7    2
         3     8       0    2    6    1
 19      1     1       0    5    9    3
         2     2       6    0    6    3
         3     4       0    5    6    3
 20      1     1       0    6    7    4
         2     3      10    0    4    2
         3     9       0    5    4    1
 21      1     1       0    5    5    6
         2     3       9    0    5    4
         3     3      10    0    3    5
 22      1     0       0    0    0    0
************************************************************************
RESOURCEAVAILABILITIES:
  R 1  R 2  N 1  N 2
   27   28  125  122
************************************************************************
